11
55
0 1 96
0 2 92
0 3 6
0 4 6
0 5 69
0 6 30
0 7 33
0 8 28
0 9 44
0 10 39
1 2 59
1 3 48
1 4 15
1 5 17
1 6 36
1 7 33
1 8 4
1 9 2
1 10 21
2 3 48
2 4 53
2 5 18
2 6 80
2 7 57
2 8 41
2 9 96
2 10 61
3 4 47
3 5 25
3 6 18
3 7 45
3 8 91
3 9 1
3 10 1
4 5 67
4 6 27
4 7 3
4 8 32
4 9 94
4 10 87
5 6 16
5 7 84
5 8 75
5 9 67
5 10 64
6 7 91
6 8 44
6 9 60
6 10 37
7 8 4
7 9 35
7 10 34
8 9 26
8 10 48
9 10 78
0
